Gurobi 12.0.1:   lim:time = 14400
  mip:bestbound = 1
Set parameter LogToConsole to value 1
  tech:outlev = 1
Set parameter Cuts to value 3
  cut:cuts = 3
Set parameter Presolve to value 2
  pre:solve = 2
Set parameter MIPFocus to value 2
  mip:focus = 2
Set parameter Symmetry to value 2
  mip:symmetry = 2
Set parameter InfUnbdInfo to value 1
Gurobi Optimizer version 12.0.1 build v12.0.1rc0 (win64 - Windows 11.0 (26100.2))

CPU model: Intel(R) Core(TM) i7-10700 CPU @ 2.90GHz, instruction set [SSE2|AVX|AVX2]
Thread count: 8 physical cores, 16 logical processors, using up to 16 threads

Non-default parameters:
TimeLimit  14400
MIPFocus  2
Symmetry  2
Cuts  3
InfUnbdInfo  1
Presolve  2

Optimize a model with 207 rows, 269 columns and 1425 nonzeros
Model fingerprint: 0xa4581dc9
Model has 2 quadratic constraints
Variable types: 28 continuous, 241 integer (0 binary)
Coefficient statistics:
  Matrix range     [1e+00, 1e+05]
  QMatrix range    [1e+00, 1e+00]
  QLMatrix range   [1e+01, 1e+01]
  Objective range  [3e+00, 1e+02]
  Bounds range     [1e+00, 1e+02]
  RHS range        [1e+00, 1e+05]
  QRHS range       [1e+02, 1e+02]
Presolve removed 27 rows and 51 columns
Presolve time: 0.02s
Presolved: 314 rows, 350 columns, 1988 nonzeros
Variable types: 10 continuous, 340 integer (282 binary)
Found heuristic solution: objective 262.3300000
Found heuristic solution: objective 189.6900000
Root relaxation presolve removed 23 rows and 0 columns
Root relaxation presolved: 210 rows, 281 columns, 1974 nonzeros


Root relaxation: objective 1.494865e+02, 44 iterations, 0.00 seconds (0.00 work units)

    Nodes    |    Current Node    |     Objective Bounds      |     Work
 Expl Unexpl |  Obj  Depth IntInf | Incumbent    BestBd   Gap | It/Node Time

     0     0  149.48649    0   29  189.69000  149.48649  21.2%     -    0s
     0     0  161.34028    0   24  189.69000  161.34028  14.9%     -    0s
     0     0  161.52032    0   39  189.69000  161.52032  14.9%     -    0s
     0     0  161.52032    0   20  189.69000  161.52032  14.9%     -    0s
     0     0  161.52032    0   19  189.69000  161.52032  14.9%     -    0s
     0     0  161.52032    0   29  189.69000  161.52032  14.9%     -    0s
H    0     0                     186.2300000  171.66000  7.82%     -    0s
     0     0  171.66000    0   12  186.23000  171.66000  7.82%     -    0s

Cutting planes:
  Learned: 6
  Gomory: 28
  Lift-and-project: 24
  Implied bound: 4
  Projected implied bound: 1
  Clique: 3
  MIR: 3
  StrongCG: 6
  Flow cover: 14
  Zero half: 7
  Mod-K: 11
  RLT: 15
  Relax-and-lift: 1

Explored 1 nodes (169 simplex iterations) in 0.21 seconds (0.10 work units)
Thread count was 16 (of 16 available processors)

Solution count 3: 186.23 189.69 262.33 

Optimal solution found (tolerance 1.00e-04)
Best objective 1.862300000000e+02, best bound 1.862300000000e+02, gap 0.0000%

AMPL MP initial flat model has 269 variables (0 integer, 241 binary);
Objectives: 1 linear; 
Constraints:  207 linear; 2 quadratic;

AMPL MP final model has 269 variables (0 integer, 241 binary);
Objectives: 1 linear; 
Constraints:  207 linear; 2 quadratic;


-----RESULTS INFO-----
running_time:  0.29700000000000004
TC.best_bound:  186.23
TC:  186.23
MIP Gap (%):  0
=== Vehicle Routes ===
Vehicle 1: 0 → 1
Vehicle 1: 1 → 6
Vehicle 1: 6 → 11
Vehicle 1: 11 → 13
Vehicle 2: 0 → 13

=== Full Vehicle Routes ===
Vehicle 1: 0 → 1 → 6 → 11 → 0 (70<100)
Vehicle 2: 0 → 0 (0<100)
Arc used by MRT line: y variables:
Customer assigment to PL: u variables:
2 6
3 6
4 11
5 6
Node is served by regular vehicle: g variables:
1
6
11
Customer assigment to Home delivery: gm variables:
1
Node total demands: ntd variables:
1 13 1
4 0 0
5 0 0
12 0 0
6 45 1
7 0 0
8 0 0
9 0 0
10 0 0
11 12 1
Customer's demand delivered to PL: l variables:
2
3
4
5
Lockers load <= capacity:
0 <= 78
45 <= 89
0 <= 72
0 <= 72
0 <= 93
0 <= 97
12 <= 85
